33D32945 STP File, STP Format Version 1.0

SECTION Comment
Name "wrp3-22-10s"
Creator "Bernd Zey"
Problem "Stochastic Steiner Tree Problem"
# Stochastic Steiner tree problem instance, base file: wrp3-22.stp
# weight-scaling on, factor=0.010000 (for "big-M" edges)
# parameters:
# distribution=equal
# selectRootRandomly=0
# probabilityTerminal=33
# probabilityNonTerminal=5
# 2nd stage edge-costs in [1.1000c_e, 1.3000c_e]
END

SECTION Graph
Nodes 233
Edges 431
Scenarios 10
Root 215
E 1 6 25
E 1 209 1
E 1 210 1
E 1 211 5
E 2 211 6
E 3 209 5
E 3 211 1
E 4 210 5
E 4 211 1
E 5 199 12
E 5 202 1
E 5 203 1
E 5 205 5
E 6 205 6
E 6 207 1
E 6 208 1
E 7 202 5
E 7 205 1
E 7 207 6
E 8 203 5
E 8 205 1
E 8 208 6
E 9 10 5
E 9 201 1
E 9 204 9
E 10 206 9
E 11 200 15
E 11 201 9
E 11 204 1
E 12 206 1
E 13 69 1
E 13 176 11
E 13 182 1
E 13 183 6
E 14 69 1
E 14 180 5
E 14 185 6
E 14 188 16
E 15 185 9
E 15 189 1
E 16 182 6
E 16 183 1
E 17 181 11
E 17 185 1
E 17 189 9
E 17 192 15
E 18 19 5
E 18 24 1
E 18 149 1
E 18 161 9
E 19 25 1
E 19 159 1
E 19 168 9
E 20 168 6
E 20 174 1
E 21 149 9
E 21 161 1
E 22 159 9
E 22 168 1
E 22 174 6
E 22 175 7
E 23 142 1
E 23 146 6
E 24 25 5
E 24 143 9
E 24 147 1
E 25 146 9
E 25 156 1
E 26 143 1
E 26 147 9
E 27 142 6
E 27 146 1
E 27 153 7
E 27 156 9
E 28 33 7
E 28 148 1
E 28 151 1
E 28 157 6
E 29 157 5
E 29 162 1
E 29 190 42
E 30 148 6
E 30 157 1
E 30 162 5
E 31 151 6
E 31 157 1
E 31 186 36
E 32 129 43
E 32 138 1
E 32 140 1
E 32 141 5
E 33 141 6
E 33 144 1
E 33 145 1
E 34 134 17
E 34 138 5
E 34 141 1
E 34 144 6
E 35 140 5
E 35 141 1
E 35 145 6
E 36 119 5
E 36 125 1
E 36 127 1
E 36 131 6
E 37 131 5
E 37 133 1
E 38 125 6
E 38 128 4
E 38 131 1
E 38 133 5
E 39 127 6
E 39 131 1
E 40 96 4
E 40 98 1
E 40 100 4
E 40 111 10
E 41 110 4
E 41 111 3
E 41 118 4
E 41 120 5
E 42 49 7
E 42 78 6
E 42 79 1
E 42 88 10
E 43 88 3
E 43 90 1
E 43 134 64
E 44 45 10
E 44 105 1
E 44 106 1
E 45 117 1
E 46 56 5
E 46 89 3
E 46 94 1
E 46 98 6
E 47 48 10
E 47 49 7
E 47 89 1
E 47 94 3
E 48 50 7
E 48 101 3
E 48 102 3
E 49 50 10
E 49 84 1
E 50 88 7
E 50 97 3
E 51 59 5
E 51 75 3
E 51 78 1
E 51 79 6
E 52 53 10
E 52 75 1
E 52 78 3
E 53 82 3
E 54 55 10
E 54 64 7
E 54 76 3
E 54 80 3
E 55 65 7
E 55 86 1
E 55 87 3
E 56 86 3
E 56 87 1
E 56 93 6
E 57 58 10
E 57 70 3
E 58 72 1
E 58 74 3
E 59 72 3
E 59 74 1
E 59 77 6
E 60 83 7
E 60 91 2
E 61 63 7
E 61 91 8
E 61 99 1
E 62 76 9
E 62 83 3
E 63 85 8
E 63 87 6
E 63 93 1
E 64 65 10
E 64 71 7
E 64 73 3
E 65 67 7
E 65 81 1
E 66 71 3
E 66 73 7
E 67 71 10
E 67 74 6
E 67 77 1
E 68 91 188
E 69 177 11
E 69 184 6
E 70 71 6
E 70 74 10
E 72 75 5
E 73 76 7
E 77 79 5
E 77 81 7
E 78 82 10
E 79 84 7
E 80 83 6
E 80 87 10
E 81 84 5
E 81 86 7
E 82 88 6
E 83 85 2
E 84 89 7
E 85 91 7
E 86 89 5
E 90 92 1
E 90 136 70
E 92 97 5
E 92 137 70
E 93 98 5
E 93 99 7
E 94 95 1
E 94 101 10
E 95 96 1
E 95 104 10
E 96 107 10
E 97 102 7
E 97 139 70
E 98 105 7
E 99 105 5
E 100 103 1
E 100 114 10
E 101 104 1
E 101 108 3
E 102 108 3
E 103 106 1
E 103 116 10
E 104 107 1
E 104 109 3
E 106 117 10
E 107 110 3
E 107 111 4
E 108 109 1
E 108 112 5
E 109 110 1
E 109 113 5
E 110 115 5
E 111 114 4
E 112 113 1
E 112 121 6
E 113 115 1
E 113 123 6
E 114 116 1
E 114 118 3
E 115 120 4
E 115 124 6
E 116 117 1
E 116 119 3
E 117 122 3
E 118 119 1
E 118 125 5
E 119 122 1
E 120 125 4
E 120 128 6
E 121 123 1
E 121 126 5
E 122 127 5
E 123 124 1
E 123 129 5
E 124 128 4
E 124 130 5
E 126 129 1
E 126 138 43
E 128 132 5
E 129 130 1
E 130 132 4
E 130 140 43
E 132 133 4
E 134 135 6
E 135 136 1
E 135 155 30
E 136 137 1
E 136 150 24
E 137 139 5
E 137 152 24
E 139 144 10
E 142 150 10
E 143 146 5
E 144 148 7
E 145 151 7
E 147 149 1
E 150 152 1
E 150 158 6
E 152 160 6
E 152 162 21
E 153 154 1
E 153 163 9
E 154 155 1
E 154 164 9
E 155 158 1
E 155 166 9
E 156 159 1
E 156 163 7
E 158 160 1
E 158 169 9
E 159 165 7
E 160 171 9
E 161 168 5
E 162 188 42
E 163 164 1
E 163 165 1
E 164 166 1
E 164 167 1
E 165 167 1
E 165 175 9
E 166 169 1
E 166 170 1
E 167 170 1
E 167 176 9
E 169 171 1
E 169 172 1
E 170 172 1
E 170 177 9
E 171 173 1
E 172 173 1
E 172 178 9
E 173 179 9
E 174 180 10
E 174 182 12
E 175 176 1
E 175 182 11
E 176 177 1
E 177 178 1
E 178 179 1
E 178 180 6
E 179 181 6
E 179 186 17
E 180 181 1
E 181 187 17
E 183 184 1
E 184 185 1
E 186 187 6
E 187 191 5
E 188 190 1
E 188 192 6
E 189 195 18
E 190 191 1
E 190 193 6
E 191 194 6
E 192 193 1
E 193 194 1
E 194 195 10
E 195 196 1
E 195 198 9
E 196 197 1
E 196 199 9
E 197 200 9
E 197 201 15
E 198 199 1
E 198 202 12
E 199 200 1
E 200 203 12
E 204 206 5
E 207 209 25
E 208 210 25
E 1 212 1000
E 2 212 1000
E 3 212 1000
E 4 212 1000
E 5 213 1000
E 6 213 1000
E 7 213 1000
E 8 213 1000
E 9 214 1000
E 10 214 1000
E 11 214 1000
E 12 214 1000
E 13 215 1000
E 14 215 1000
E 15 215 1000
E 16 215 1000
E 17 215 1000
E 18 216 1000
E 19 216 1000
E 20 216 1000
E 21 216 1000
E 22 216 1000
E 23 217 1000
E 24 217 1000
E 25 217 1000
E 26 217 1000
E 27 217 1000
E 28 218 1000
E 29 218 1000
E 30 218 1000
E 31 218 1000
E 32 219 1000
E 33 219 1000
E 34 219 1000
E 35 219 1000
E 36 220 1000
E 37 220 1000
E 38 220 1000
E 39 220 1000
E 40 221 1000
E 41 221 1000
E 42 222 1000
E 43 222 1000
E 44 223 1000
E 45 223 1000
E 46 224 1000
E 47 224 1000
E 48 224 1000
E 49 225 1000
E 50 225 1000
E 51 226 1000
E 52 226 1000
E 53 226 1000
E 54 227 1000
E 55 227 1000
E 56 227 1000
E 57 228 1000
E 58 228 1000
E 59 228 1000
E 60 229 1000
E 61 229 1000
E 62 230 1000
E 63 230 1000
E 64 231 1000
E 65 231 1000
E 66 232 1000
E 67 232 1000
E 68 233 1000
E 69 215 1000
END

SECTION StochasticProbabilities
SP 0.061900 0.10310 0.11350 0.092800 0.14440 0.092800 0.10300 0.082400 0.11340 0.092700
END

SECTION StochasticWeights
SE 28 29 28 31 28 28 31 28 32 28 
SE 2 2 2 2 2 2 2 2 2 2 
SE 2 2 2 2 2 2 2 2 2 2 
SE 6 6 6 6 6 6 6 6 6 6 
SE 7 7 7 7 7 7 7 7 7 7 
SE 6 6 6 6 6 6 6 6 6 6 
SE 2 2 2 2 2 2 2 2 2 2 
SE 6 6 6 6 6 6 6 6 6 6 
SE 2 2 2 2 2 2 2 2 2 2 
SE 14 14 15 14 15 15 14 14 14 15 
SE 2 2 2 2 2 2 2 2 2 2 
SE 2 2 2 2 2 2 2 2 2 2 
SE 6 6 6 6 6 6 6 6 6 6 
SE 7 7 7 7 7 7 7 7 7 7 
SE 2 2 2 2 2 2 2 2 2 2 
SE 2 2 2 2 2 2 2 2 2 2 
SE 6 6 6 6 6 6 6 6 6 6 
SE 2 2 2 2 2 2 2 2 2 2 
SE 7 7 7 7 7 7 7 7 7 7 
SE 6 6 6 6 6 6 6 6 6 6 
SE 2 2 2 2 2 2 2 2 2 2 
SE 7 7 7 7 7 7 7 7 7 7 
SE 6 6 6 6 6 6 6 6 6 6 
SE 2 2 2 2 2 2 2 2 2 2 
SE 10 10 10 10 10 11 10 11 11 10 
SE 10 10 11 10 10 10 10 10 11 10 
SE 18 19 18 19 17 19 18 19 17 17 
SE 10 10 10 10 10 10 11 10 11 11 
SE 2 2 2 2 2 2 2 2 2 2 
SE 2 2 2 2 2 2 2 2 2 2 
SE 2 2 2 2 2 2 2 2 2 2 
SE 13 14 13 13 13 13 13 13 13 14 
SE 2 2 2 2 2 2 2 2 2 2 
SE 7 7 7 7 7 7 7 7 7 7 
SE 2 2 2 2 2 2 2 2 2 2 
SE 6 6 6 6 6 6 6 6 6 6 
SE 7 7 7 7 7 7 7 7 7 7 
SE 18 20 19 18 18 18 18 18 19 18 
SE 11 10 10 10 11 10 10 10 10 10 
SE 2 2 2 2 2 2 2 2 2 2 
SE 7 7 7 7 7 7 7 7 7 7 
SE 2 2 2 2 2 2 2 2 2 2 
SE 14 13 13 14 13 13 13 13 13 14 
SE 2 2 2 2 2 2 2 2 2 2 
SE 11 10 10 10 10 10 10 10 11 10 
SE 17 18 17 18 17 18 17 17 19 17 
SE 6 6 6 6 6 6 6 6 6 6 
SE 2 2 2 2 2 2 2 2 2 2 
SE 2 2 2 2 2 2 2 2 2 2 
SE 11 10 11 10 11 10 10 11 10 10 
SE 2 2 2 2 2 2 2 2 2 2 
SE 2 2 2 2 2 2 2 2 2 2 
SE 10 11 11 10 10 10 11 10 10 10 
SE 7 7 7 7 7 7 7 7 7 7 
SE 2 2 2 2 2 2 2 2 2 2 
SE 10 10 10 10 11 10 11 10 11 11 
SE 2 2 2 2 2 2 2 2 2 2 
SE 11 10 10 10 10 11 10 10 10 10 
SE 2 2 2 2 2 2 2 2 2 2 
SE 7 7 7 7 7 7 7 7 7 7 
SE 9 8 8 9 8 8 8 9 9 9 
SE 2 2 2 2 2 2 2 2 2 2 
SE 7 7 7 7 7 7 7 7 7 7 
SE 6 6 6 6 6 6 6 6 6 6 
SE 10 10 11 10 11 10 11 10 10 10 
SE 2 2 2 2 2 2 2 2 2 2 
SE 10 10 10 10 11 11 10 11 10 10 
SE 2 2 2 2 2 2 2 2 2 2 
SE 2 2 2 2 2 2 2 2 2 2 
SE 10 11 10 10 10 10 11 10 10 10 
SE 7 7 7 7 7 7 7 7 7 7 
SE 2 2 2 2 2 2 2 2 2 2 
SE 8 8 8 8 8 8 8 8 8 8 
SE 10 11 10 11 11 10 11 10 10 10 
SE 8 8 8 9 8 8 8 8 9 9 
SE 2 2 2 2 2 2 2 2 2 2 
SE 2 2 2 2 2 2 2 2 2 2 
SE 7 7 7 7 7 7 7 7 7 7 
SE 6 6 6 6 6 6 6 6 6 6 
SE 2 2 2 2 2 2 2 2 2 2 
SE 51 53 53 52 48 53 49 50 47 51 
SE 7 7 7 7 7 7 7 7 7 7 
SE 2 2 2 2 2 2 2 2 2 2 
SE 6 6 6 6 6 6 6 6 6 6 
SE 7 7 7 7 7 7 7 7 7 7 
SE 2 2 2 2 2 2 2 2 2 2 
SE 41 44 40 43 41 46 46 42 42 40 
SE 48 49 49 51 48 51 48 52 49 48 
SE 2 2 2 2 2 2 2 2 2 2 
SE 2 2 2 2 2 2 2 2 2 2 
SE 6 6 6 6 6 6 6 6 6 6 
SE 7 7 7 7 7 7 7 7 7 7 
SE 2 2 2 2 2 2 2 2 2 2 
SE 2 2 2 2 2 2 2 2 2 2 
SE 19 19 19 19 21 22 19 21 21 22 
SE 6 6 6 6 6 6 6 6 6 6 
SE 2 2 2 2 2 2 2 2 2 2 
SE 7 7 7 7 7 7 7 7 7 7 
SE 6 6 6 6 6 6 6 6 6 6 
SE 2 2 2 2 2 2 2 2 2 2 
SE 7 7 7 7 7 7 7 7 7 7 
SE 6 6 6 6 6 6 6 6 6 6 
SE 2 2 2 2 2 2 2 2 2 2 
SE 2 2 2 2 2 2 2 2 2 2 
SE 7 7 7 7 7 7 7 7 7 7 
SE 6 6 6 6 6 6 6 6 6 6 
SE 2 2 2 2 2 2 2 2 2 2 
SE 7 7 7 7 7 7 7 7 7 7 
SE 5 5 5 5 5 5 5 5 5 5 
SE 2 2 2 2 2 2 2 2 2 2 
SE 6 6 6 6 6 6 6 6 6 6 
SE 7 7 7 7 7 7 7 7 7 7 
SE 2 2 2 2 2 2 2 2 2 2 
SE 5 5 5 5 5 5 5 5 5 5 
SE 2 2 2 2 2 2 2 2 2 2 
SE 5 5 5 5 5 5 5 5 5 5 
SE 12 12 11 11 12 11 12 13 11 12 
SE 5 5 5 5 5 5 5 5 5 5 
SE 4 4 4 4 4 4 4 4 4 4 
SE 5 5 5 5 5 5 5 5 5 5 
SE 6 6 6 6 6 6 6 6 6 6 
SE 8 8 9 9 9 8 8 9 8 8 
SE 7 7 7 7 7 7 7 7 7 7 
SE 2 2 2 2 2 2 2 2 2 2 
SE 11 13 11 12 11 13 11 13 11 12 
SE 4 4 4 4 4 4 4 4 4 4 
SE 2 2 2 2 2 2 2 2 2 2 
SE 80 81 75 79 77 71 78 80 81 75 
SE 11 12 13 11 11 12 12 11 11 12 
SE 2 2 2 2 2 2 2 2 2 2 
SE 2 2 2 2 2 2 2 2 2 2 
SE 2 2 2 2 2 2 2 2 2 2 
SE 6 6 6 6 6 6 6 6 6 6 
SE 4 4 4 4 4 4 4 4 4 4 
SE 2 2 2 2 2 2 2 2 2 2 
SE 7 7 7 7 7 7 7 7 7 7 
SE 12 11 12 11 11 11 11 13 12 13 
SE 8 8 8 9 8 9 8 8 8 8 
SE 2 2 2 2 2 2 2 2 2 2 
SE 4 4 4 4 4 4 4 4 4 4 
SE 8 8 9 9 8 8 9 8 9 8 
SE 4 4 4 4 4 4 4 4 4 4 
SE 4 4 4 4 4 4 4 4 4 4 
SE 13 11 11 11 12 13 11 12 13 13 
SE 2 2 2 2 2 2 2 2 2 2 
SE 8 8 8 8 8 9 9 8 9 8 
SE 4 4 4 4 4 4 4 4 4 4 
SE 6 6 6 6 6 6 6 6 6 6 
SE 4 4 4 4 4 4 4 4 4 4 
SE 2 2 2 2 2 2 2 2 2 2 
SE 7 7 7 7 7 7 7 7 7 7 
SE 11 13 11 11 11 12 12 13 12 11 
SE 2 2 2 2 2 2 2 2 2 2 
SE 4 4 4 4 4 4 4 4 4 4 
SE 4 4 4 4 4 4 4 4 4 4 
SE 12 11 12 11 13 11 13 13 12 11 
SE 8 8 8 9 9 8 9 8 8 8 
SE 4 4 4 4 4 4 4 4 4 4 
SE 4 4 4 4 4 4 4 4 4 4 
SE 8 8 8 9 8 8 8 8 9 9 
SE 2 2 2 2 2 2 2 2 2 2 
SE 4 4 4 4 4 4 4 4 4 4 
SE 4 4 4 4 4 4 4 4 4 4 
SE 2 2 2 2 2 2 2 2 2 2 
SE 7 7 7 7 7 7 7 7 7 7 
SE 13 11 13 12 13 13 12 12 12 11 
SE 4 4 4 4 4 4 4 4 4 4 
SE 2 2 2 2 2 2 2 2 2 2 
SE 4 4 4 4 4 4 4 4 4 4 
SE 4 4 4 4 4 4 4 4 4 4 
SE 2 2 2 2 2 2 2 2 2 2 
SE 7 7 7 7 7 7 7 7 7 7 
SE 8 9 8 9 8 8 8 8 9 8 
SE 3 3 3 3 3 3 3 3 3 3 
SE 8 8 9 8 8 8 8 8 8 9 
SE 10 9 9 9 9 9 10 10 9 9 
SE 2 2 2 2 2 2 2 2 2 2 
SE 10 10 11 11 10 11 10 10 10 10 
SE 4 4 4 4 4 4 4 4 4 4 
SE 9 9 9 9 10 10 9 9 9 10 
SE 7 7 7 7 7 7 7 7 7 7 
SE 2 2 2 2 2 2 2 2 2 2 
SE 11 13 13 11 11 11 11 11 13 11 
SE 8 9 9 9 9 9 8 8 9 8 
SE 4 4 4 4 4 4 4 4 4 4 
SE 8 8 8 8 8 9 9 9 8 9 
SE 2 2 2 2 2 2 2 2 2 2 
SE 4 4 4 4 4 4 4 4 4 4 
SE 8 8 9 8 8 8 8 8 9 8 
SE 11 13 13 12 11 13 13 11 13 13 
SE 7 7 7 7 7 7 7 7 7 7 
SE 2 2 2 2 2 2 2 2 2 2 
SE 225 213 214 239 238 236 207 233 210 235 
SE 13 13 14 13 13 14 13 13 14 13 
SE 7 7 7 7 7 7 7 7 7 7 
SE 7 7 7 7 7 7 7 7 7 7 
SE 11 12 13 12 13 13 12 12 11 11 
SE 6 6 6 6 6 6 6 6 6 6 
SE 8 9 8 9 8 8 8 8 9 9 
SE 6 6 6 6 6 6 6 6 6 6 
SE 8 8 9 8 8 8 9 9 8 8 
SE 11 13 11 11 11 12 13 12 12 13 
SE 9 8 8 8 9 9 8 8 8 9 
SE 7 7 7 7 7 7 7 7 7 7 
SE 13 12 12 12 11 11 12 12 12 12 
SE 6 6 6 6 6 6 6 6 6 6 
SE 8 8 9 8 9 9 8 9 9 8 
SE 7 7 7 7 7 7 7 7 7 7 
SE 3 3 3 3 3 3 3 3 3 3 
SE 8 8 9 9 8 8 8 9 9 9 
SE 9 8 8 8 8 8 8 9 8 9 
SE 6 6 6 6 6 6 6 6 6 6 
SE 2 2 2 2 2 2 2 2 2 2 
SE 88 89 83 86 86 81 77 83 91 89 
SE 6 6 6 6 6 6 6 6 6 6 
SE 90 83 77 87 77 81 90 78 84 84 
SE 6 6 6 6 6 6 6 6 6 6 
SE 9 9 9 8 8 9 9 8 8 8 
SE 2 2 2 2 2 2 2 2 2 2 
SE 11 11 12 12 12 12 12 12 13 12 
SE 2 2 2 2 2 2 2 2 2 2 
SE 11 13 13 13 12 11 13 12 11 11 
SE 13 12 12 12 13 11 12 12 12 13 
SE 8 8 9 9 8 9 8 8 9 8 
SE 84 84 90 79 78 79 81 77 82 82 
SE 8 9 9 9 9 8 8 8 8 9 
SE 6 6 6 6 6 6 6 6 6 6 
SE 2 2 2 2 2 2 2 2 2 2 
SE 13 13 11 12 12 12 11 12 13 12 
SE 2 2 2 2 2 2 2 2 2 2 
SE 4 4 4 4 4 4 4 4 4 4 
SE 4 4 4 4 4 4 4 4 4 4 
SE 2 2 2 2 2 2 2 2 2 2 
SE 13 11 11 12 12 11 12 11 12 12 
SE 2 2 2 2 2 2 2 2 2 2 
SE 4 4 4 4 4 4 4 4 4 4 
SE 12 12 13 13 11 13 12 13 11 11 
SE 4 4 4 4 4 4 4 4 4 4 
SE 5 5 5 5 5 5 5 5 5 5 
SE 2 2 2 2 2 2 2 2 2 2 
SE 6 6 6 6 6 6 6 6 6 6 
SE 2 2 2 2 2 2 2 2 2 2 
SE 6 6 6 6 6 6 6 6 6 6 
SE 6 6 6 6 6 6 6 6 6 6 
SE 5 5 5 5 5 5 5 5 5 5 
SE 2 2 2 2 2 2 2 2 2 2 
SE 7 7 7 7 7 7 7 7 7 7 
SE 2 2 2 2 2 2 2 2 2 2 
SE 7 7 7 7 7 7 7 7 7 7 
SE 2 2 2 2 2 2 2 2 2 2 
SE 4 4 4 4 4 4 4 4 4 4 
SE 5 5 5 5 5 5 5 5 5 5 
SE 7 7 7 7 7 7 7 7 7 7 
SE 2 2 2 2 2 2 2 2 2 2 
SE 4 4 4 4 4 4 4 4 4 4 
SE 4 4 4 4 4 4 4 4 4 4 
SE 2 2 2 2 2 2 2 2 2 2 
SE 6 6 6 6 6 6 6 6 6 6 
SE 2 2 2 2 2 2 2 2 2 2 
SE 5 5 5 5 5 5 5 5 5 5 
SE 7 7 7 7 7 7 7 7 7 7 
SE 2 2 2 2 2 2 2 2 2 2 
SE 6 6 6 6 6 6 6 6 6 6 
SE 6 6 6 6 6 6 6 6 6 6 
SE 2 2 2 2 2 2 2 2 2 2 
SE 6 6 6 6 6 6 6 6 6 6 
SE 5 5 5 5 5 5 5 5 5 5 
SE 6 6 6 6 6 6 6 6 6 6 
SE 2 2 2 2 2 2 2 2 2 2 
SE 50 53 51 48 51 50 50 55 52 53 
SE 6 6 6 6 6 6 6 6 6 6 
SE 2 2 2 2 2 2 2 2 2 2 
SE 5 5 5 5 5 5 5 5 5 5 
SE 50 54 48 52 48 52 53 55 51 48 
SE 5 5 5 5 5 5 5 5 5 5 
SE 7 7 7 7 7 7 7 7 7 7 
SE 2 2 2 2 2 2 2 2 2 2 
SE 36 33 34 39 37 39 34 33 38 35 
SE 2 2 2 2 2 2 2 2 2 2 
SE 27 27 27 29 27 27 31 29 30 29 
SE 6 6 6 6 6 6 6 6 6 6 
SE 29 27 31 27 27 30 31 29 31 31 
SE 13 12 13 13 12 11 13 11 12 13 
SE 11 11 13 12 12 11 11 12 12 13 
SE 6 6 6 6 6 6 6 6 6 6 
SE 8 8 8 8 9 8 9 8 8 9 
SE 9 9 9 9 8 8 8 9 8 8 
SE 2 2 2 2 2 2 2 2 2 2 
SE 2 2 2 2 2 2 2 2 2 2 
SE 7 7 7 7 7 7 7 7 7 7 
SE 7 7 7 7 7 7 7 7 7 7 
SE 24 27 25 27 27 24 24 24 24 24 
SE 2 2 2 2 2 2 2 2 2 2 
SE 10 10 11 10 10 11 11 11 11 11 
SE 2 2 2 2 2 2 2 2 2 2 
SE 10 11 11 10 10 10 10 11 10 10 
SE 2 2 2 2 2 2 2 2 2 2 
SE 10 11 10 10 11 11 11 11 10 10 
SE 2 2 2 2 2 2 2 2 2 2 
SE 9 8 9 8 9 9 8 8 9 8 
SE 2 2 2 2 2 2 2 2 2 2 
SE 10 10 11 11 11 10 11 10 10 11 
SE 8 8 9 9 8 9 9 8 8 9 
SE 11 10 11 11 10 10 10 10 10 10 
SE 6 6 6 6 6 6 6 6 6 6 
SE 50 54 51 49 52 48 50 47 47 52 
SE 2 2 2 2 2 2 2 2 2 2 
SE 2 2 2 2 2 2 2 2 2 2 
SE 2 2 2 2 2 2 2 2 2 2 
SE 2 2 2 2 2 2 2 2 2 2 
SE 2 2 2 2 2 2 2 2 2 2 
SE 10 10 10 10 10 11 10 10 10 10 
SE 2 2 2 2 2 2 2 2 2 2 
SE 2 2 2 2 2 2 2 2 2 2 
SE 2 2 2 2 2 2 2 2 2 2 
SE 11 10 11 10 11 11 11 10 10 10 
SE 2 2 2 2 2 2 2 2 2 2 
SE 2 2 2 2 2 2 2 2 2 2 
SE 2 2 2 2 2 2 2 2 2 2 
SE 11 10 10 11 10 10 10 10 11 10 
SE 2 2 2 2 2 2 2 2 2 2 
SE 2 2 2 2 2 2 2 2 2 2 
SE 10 10 10 11 10 11 10 10 10 10 
SE 10 10 10 10 11 10 10 11 10 10 
SE 11 13 12 11 12 12 13 12 12 12 
SE 14 14 14 15 14 14 14 14 14 14 
SE 2 2 2 2 2 2 2 2 2 2 
SE 13 13 13 13 14 14 14 14 14 14 
SE 2 2 2 2 2 2 2 2 2 2 
SE 2 2 2 2 2 2 2 2 2 2 
SE 2 2 2 2 2 2 2 2 2 2 
SE 7 7 7 7 7 7 7 7 7 7 
SE 7 7 7 7 7 7 7 7 7 7 
SE 21 22 22 20 22 21 19 19 21 20 
SE 2 2 2 2 2 2 2 2 2 2 
SE 19 19 22 22 21 22 22 21 19 19 
SE 2 2 2 2 2 2 2 2 2 2 
SE 2 2 2 2 2 2 2 2 2 2 
SE 7 7 7 7 7 7 7 7 7 7 
SE 6 6 6 6 6 6 6 6 6 6 
SE 2 2 2 2 2 2 2 2 2 2 
SE 7 7 7 7 7 7 7 7 7 7 
SE 23 20 21 21 20 21 21 23 23 23 
SE 2 2 2 2 2 2 2 2 2 2 
SE 7 7 7 7 7 7 7 7 7 7 
SE 7 7 7 7 7 7 7 7 7 7 
SE 2 2 2 2 2 2 2 2 2 2 
SE 2 2 2 2 2 2 2 2 2 2 
SE 13 11 12 13 12 11 12 13 11 11 
SE 2 2 2 2 2 2 2 2 2 2 
SE 11 11 10 10 10 11 10 11 11 11 
SE 2 2 2 2 2 2 2 2 2 2 
SE 11 10 10 10 10 10 11 10 10 10 
SE 10 11 11 11 11 11 11 10 10 10 
SE 18 17 18 17 19 19 18 17 17 17 
SE 2 2 2 2 2 2 2 2 2 2 
SE 14 14 14 14 14 14 14 14 15 14 
SE 2 2 2 2 2 2 2 2 2 2 
SE 14 14 15 15 14 15 14 15 14 15 
SE 6 6 6 6 6 6 6 6 6 6 
SE 30 28 28 30 29 28 29 28 28 28 
SE 31 29 30 32 32 31 32 28 30 31 
SE 1144 1185 1282 1264 1120 1268 1271 1209 1139 1196 
SE 1266 1247 1153 1262 1190 1103 1157 1249 1295 1136 
SE 1124 1165 1225 1103 1205 1114 1150 1258 1186 1199 
SE 1158 1264 1219 1200 1131 1212 1199 1106 1258 1217 
SE 1295 1153 1127 1117 1117 1240 1299 1172 1280 1138 
SE 1221 1205 1166 1241 1216 1229 1129 1123 1260 1104 
SE 1278 1237 1281 1189 1157 1215 1287 1244 1106 1146 
SE 1294 1196 1243 1191 1285 1169 1187 1277 1159 1297 
SE 1169 1241 1133 1238 1116 1138 1282 1207 1250 1100 
SE 1196 1268 1266 1215 1146 1252 1230 1233 1106 1162 
SE 1174 1226 1164 1194 1112 1126 1294 1286 1166 1254 
SE 1249 1136 1291 1250 1293 1190 1119 1240 1132 1135 
SE 1108 1138 1113 1174 1173 1274 1205 1297 1298 1298 
SE 1212 1104 1133 1223 1201 1146 1183 1258 1268 1289 
SE 1194 1151 1199 1232 1252 1175 1240 1116 1278 1296 
SE 1168 1141 1266 1190 1295 1141 1169 1259 1237 1247 
SE 1272 1128 1286 1252 1253 1140 1182 1165 1134 1234 
SE 1263 1149 1219 1121 1229 1182 1109 1300 1210 1192 
SE 1136 1229 1269 1198 1249 1279 1255 1227 1265 1271 
SE 1227 1241 1282 1277 1143 1296 1186 1236 1105 1154 
SE 1131 1119 1146 1291 1221 1105 1123 1267 1206 1226 
SE 1193 1112 1189 1184 1282 1137 1212 1234 1190 1104 
SE 1237 1299 1185 1115 1244 1143 1119 1147 1108 1256 
SE 1134 1248 1175 1235 1149 1181 1221 1127 1212 1178 
SE 1259 1223 1198 1206 1218 1179 1114 1105 1127 1140 
SE 1170 1113 1160 1148 1287 1142 1151 1119 1273 1147 
SE 1268 1203 1185 1182 1202 1132 1115 1121 1253 1254 
SE 1257 1125 1225 1227 1242 1194 1134 1197 1244 1269 
SE 1222 1237 1233 1105 1263 1257 1298 1117 1218 1210 
SE 1274 1218 1143 1233 1183 1107 1210 1285 1221 1100 
SE 1153 1116 1272 1163 1182 1223 1286 1110 1288 1160 
SE 1217 1272 1164 1219 1283 1224 1268 1226 1257 1256 
SE 1239 1164 1146 1144 1224 1110 1267 1183 1215 1287 
SE 1127 1132 1196 1166 1288 1238 1287 1268 1173 1259 
SE 1275 1235 1233 1118 1264 1286 1116 1182 1215 1172 
SE 1184 1168 1174 1112 1191 1201 1215 1206 1195 1124 
SE 1248 1237 1213 1258 1203 1166 1266 1241 1284 1213 
SE 1203 1121 1214 1157 1121 1151 1253 1276 1171 1218 
SE 1127 1214 1116 1153 1176 1270 1252 1182 1204 1272 
SE 1268 1127 1196 1145 1169 1205 1198 1148 1233 1213 
SE 1299 1240 1129 1272 1117 1253 1183 1208 1127 1281 
SE 1201 1139 1130 1247 1138 1296 1246 1117 1220 1175 
SE 1216 1114 1186 1295 1111 1245 1217 1238 1215 1199 
SE 1257 1278 1293 1145 1190 1226 1288 1204 1124 1228 
SE 1263 1143 1113 1119 1240 1292 1128 1276 1187 1163 
SE 1260 1165 1235 1176 1263 1270 1157 1255 1142 1144 
SE 1124 1269 1208 1185 1134 1218 1156 1162 1211 1124 
SE 1184 1122 1250 1221 1142 1282 1160 1291 1222 1248 
SE 1173 1164 1154 1148 1141 1152 1116 1254 1252 1236 
SE 1110 1198 1176 1284 1283 1146 1110 1239 1175 1295 
SE 1110 1263 1231 1197 1185 1278 1246 1176 1227 1101 
SE 1154 1134 1200 1138 1212 1107 1140 1220 1157 1112 
SE 1203 1160 1215 1167 1215 1133 1222 1172 1215 1249 
SE 1197 1211 1266 1213 1129 1271 1266 1223 1185 1207 
SE 1138 1282 1226 1223 1212 1138 1211 1197 1269 1190 
SE 1111 1283 1112 1224 1283 1213 1186 1127 1243 1240 
SE 1267 1225 1277 1261 1266 1112 1267 1192 1158 1254 
SE 1105 1185 1261 1104 1113 1120 1176 1168 1171 1294 
SE 1218 1258 1238 1100 1174 1257 1221 1225 1136 1208 
SE 1138 1111 1159 1216 1228 1219 1264 1210 1226 1113 
SE 1280 1102 1254 1187 1146 1127 1286 1102 1292 1244 
SE 1222 1275 1209 1163 1257 1179 1156 1185 1123 1268 
SE 1255 1284 1224 1285 1161 1293 1181 1286 1133 1270 
SE 1168 1116 1300 1182 1270 1138 1202 1186 1206 1181 
SE 1249 1257 1255 1179 1244 1267 1293 1152 1147 1177 
SE 1180 1168 1156 1253 1275 1279 1147 1168 1198 1292 
SE 1252 1184 1123 1194 1111 1239 1117 1292 1251 1155 
SE 1147 1143 1117 1136 1297 1133 1209 1293 1281 1290 
SE 1283 1190 1220 1110 1246 1280 1100 1143 1269 1160 
END

SECTION StochasticTerminals
ST 1 0 0 0 0 0 0 0 1 0 0 
ST 2 0 0 1 0 0 0 0 0 0 0 
ST 3 0 0 0 0 0 0 0 0 0 0 
ST 4 0 0 0 0 0 0 0 0 0 0 
ST 5 0 0 0 0 0 0 0 0 0 0 
ST 6 0 0 0 0 0 0 0 0 0 0 
ST 7 0 0 0 0 0 0 1 0 0 0 
ST 8 0 0 0 0 0 0 0 1 0 0 
ST 9 0 0 0 0 0 0 0 0 0 1 
ST 10 0 0 0 0 1 0 0 0 0 0 
ST 11 0 0 0 0 0 0 0 0 0 0 
ST 12 0 0 0 0 0 0 0 0 0 0 
ST 13 1 0 0 0 0 0 0 1 0 0 
ST 14 0 0 0 0 0 0 0 0 0 0 
ST 15 0 0 0 0 0 1 0 0 0 0 
ST 16 0 0 0 0 0 0 0 0 0 0 
ST 17 0 0 0 0 0 0 0 0 0 0 
ST 18 0 0 0 0 0 0 0 0 0 0 
ST 19 0 0 0 0 0 0 0 0 0 0 
ST 20 0 0 0 0 1 0 0 0 0 0 
ST 21 0 0 0 0 0 0 0 0 0 0 
ST 22 0 0 0 0 0 0 0 0 0 0 
ST 23 0 0 0 0 0 0 0 0 0 0 
ST 24 0 0 0 1 1 0 0 0 0 0 
ST 25 0 0 0 0 0 0 0 0 0 0 
ST 26 0 0 0 0 0 0 0 0 0 0 
ST 27 0 0 0 0 0 0 0 0 0 0 
ST 28 0 0 0 0 0 0 0 0 0 1 
ST 29 0 0 0 0 0 0 0 0 0 0 
ST 30 0 0 0 0 0 0 0 0 0 0 
ST 31 0 0 1 0 0 0 0 0 0 0 
ST 32 0 0 0 0 0 0 0 0 1 0 
ST 33 0 0 0 1 0 0 0 0 0 0 
ST 34 0 0 0 0 0 0 0 0 0 0 
ST 35 0 0 0 0 0 0 0 0 0 0 
ST 36 0 0 0 0 0 0 0 0 0 0 
ST 37 0 0 0 0 0 0 0 0 0 0 
ST 38 0 0 0 0 0 0 0 0 0 0 
ST 39 0 0 0 1 0 0 0 0 1 0 
ST 40 1 0 0 0 0 1 0 0 0 0 
ST 41 0 0 0 0 0 0 0 0 0 0 
ST 42 0 0 0 0 0 0 0 0 0 0 
ST 43 0 0 0 0 0 0 0 0 0 0 
ST 44 0 0 0 0 0 0 0 0 0 0 
ST 45 0 0 0 0 0 0 0 0 0 0 
ST 46 0 0 0 0 0 0 0 0 0 0 
ST 47 0 0 0 0 0 0 0 0 0 0 
ST 48 0 0 0 0 1 0 1 0 0 1 
ST 49 0 0 0 0 0 0 0 0 0 0 
ST 50 0 0 0 0 0 0 0 0 0 0 
ST 51 0 0 0 0 0 0 0 0 0 0 
ST 52 0 0 0 0 0 0 0 0 0 0 
ST 53 0 0 0 0 0 1 0 0 0 0 
ST 54 0 0 0 0 0 0 0 0 0 0 
ST 55 0 0 0 0 0 0 0 0 0 0 
ST 56 0 0 0 0 0 0 0 1 0 0 
ST 57 0 0 0 0 0 1 0 0 0 0 
ST 58 0 0 0 0 0 0 0 0 0 0 
ST 59 0 0 0 0 0 0 0 1 0 0 
ST 60 0 0 0 0 0 0 0 0 1 0 
ST 61 0 0 0 1 0 0 0 0 0 0 
ST 62 0 0 0 0 0 0 0 0 0 0 
ST 63 0 0 0 0 0 0 0 0 0 0 
ST 64 0 0 0 0 0 0 0 0 0 0 
ST 65 0 0 0 0 0 0 0 0 0 0 
ST 66 0 0 0 0 0 0 0 0 1 0 
ST 67 0 0 0 0 0 0 0 0 0 0 
ST 68 0 0 0 0 0 0 0 1 0 0 
ST 69 0 0 0 0 0 0 0 0 0 0 
ST 70 0 0 0 0 0 0 0 0 0 0 
ST 71 0 0 0 0 0 0 0 0 0 0 
ST 72 0 0 0 0 0 0 0 0 0 0 
ST 73 0 0 0 0 0 0 0 0 1 0 
ST 74 0 0 0 0 0 1 0 0 0 0 
ST 75 0 1 0 0 0 1 0 0 0 0 
ST 76 0 0 0 0 0 0 0 0 1 0 
ST 77 0 0 0 0 0 0 0 0 0 0 
ST 78 0 0 0 0 0 0 0 0 0 0 
ST 79 0 0 0 0 0 0 0 0 0 0 
ST 80 1 0 0 0 0 0 0 0 0 0 
ST 81 0 0 0 0 0 0 0 0 0 0 
ST 82 0 0 0 0 0 0 0 0 0 0 
ST 83 0 0 0 0 0 1 1 0 0 0 
ST 84 0 0 0 0 1 0 1 0 0 0 
ST 85 0 0 0 0 0 0 0 0 0 0 
ST 86 0 0 0 0 0 0 0 0 0 0 
ST 87 0 0 0 0 0 0 0 0 0 0 
ST 88 0 0 0 0 0 0 0 0 0 0 
ST 89 0 0 0 0 0 0 0 0 0 1 
ST 90 0 0 0 0 0 0 0 0 0 0 
ST 91 0 0 0 0 0 0 0 0 0 0 
ST 92 0 0 0 0 0 0 0 0 0 0 
ST 93 0 0 0 0 0 0 0 0 0 0 
ST 94 0 0 0 0 0 0 0 0 0 0 
ST 95 0 0 0 0 0 1 0 0 0 0 
ST 96 0 0 0 0 0 0 0 1 0 0 
ST 97 0 0 0 1 0 1 0 0 0 0 
ST 98 0 0 1 0 0 0 0 0 0 0 
ST 99 0 0 0 0 0 0 0 0 0 1 
ST 100 0 0 0 0 1 0 0 1 0 0 
ST 101 0 0 0 0 0 0 0 0 0 0 
ST 102 0 0 0 0 0 1 0 0 0 0 
ST 103 0 1 0 1 0 0 1 0 0 0 
ST 104 0 0 0 0 0 0 0 0 1 0 
ST 105 0 0 0 0 0 0 0 0 0 0 
ST 106 0 1 0 0 1 0 0 0 0 0 
ST 107 0 0 0 0 0 0 0 0 1 0 
ST 108 0 0 0 0 0 0 0 0 0 0 
ST 109 0 0 0 0 0 0 1 0 0 0 
ST 110 0 0 0 0 0 0 0 0 1 0 
ST 111 0 0 0 0 0 0 0 0 0 0 
ST 112 0 0 0 0 0 1 0 0 0 0 
ST 113 0 0 0 0 0 0 0 0 0 0 
ST 114 0 0 0 1 0 0 0 0 0 0 
ST 115 0 0 0 0 0 0 0 0 0 0 
ST 116 0 0 0 0 0 0 0 0 0 0 
ST 117 0 0 0 0 0 0 0 0 0 0 
ST 118 0 0 0 0 0 0 0 0 0 1 
ST 119 0 0 0 0 0 0 0 0 0 0 
ST 120 0 0 1 0 0 0 0 0 0 0 
ST 121 0 0 0 0 0 0 0 0 0 0 
ST 122 0 0 0 1 0 0 0 0 0 0 
ST 123 0 0 0 0 0 0 1 0 0 0 
ST 124 0 0 0 0 0 0 0 0 0 1 
ST 125 0 0 0 0 0 0 0 0 1 0 
ST 126 0 0 0 0 0 0 0 0 0 0 
ST 127 0 0 0 0 0 0 0 0 0 0 
ST 128 0 0 0 0 0 0 0 0 0 0 
ST 129 0 0 0 0 0 0 0 0 0 0 
ST 130 0 0 0 0 0 0 0 0 0 0 
ST 131 0 0 0 0 0 1 0 0 0 0 
ST 132 1 0 0 0 0 0 0 0 0 0 
ST 133 0 0 0 0 0 0 0 0 0 0 
ST 134 0 0 0 0 0 0 0 0 0 0 
ST 135 0 0 0 0 1 0 0 0 1 0 
ST 136 0 0 0 0 0 0 0 0 0 0 
ST 137 0 0 0 0 0 0 0 0 0 0 
ST 138 1 0 0 0 0 0 0 0 1 0 
ST 139 0 0 0 0 0 0 1 0 1 0 
ST 140 0 0 0 0 0 1 0 0 0 0 
ST 141 0 0 0 0 0 0 0 0 0 0 
ST 142 1 0 0 0 0 0 0 0 0 0 
ST 143 0 0 0 0 0 0 0 0 0 0 
ST 144 0 0 1 0 0 0 0 0 1 0 
ST 145 0 0 0 0 0 0 0 0 0 0 
ST 146 0 0 0 0 0 0 0 0 0 0 
ST 147 0 0 0 0 0 0 0 0 0 0 
ST 148 0 0 0 0 0 0 0 0 1 0 
ST 149 0 0 0 0 0 0 0 0 0 1 
ST 150 0 0 0 0 0 0 0 0 0 0 
ST 151 0 0 0 0 0 0 0 0 1 0 
ST 152 0 0 0 0 0 0 0 0 0 0 
ST 153 0 0 0 0 0 0 0 0 0 0 
ST 154 0 0 0 0 0 0 0 1 0 0 
ST 155 0 0 0 0 0 0 0 0 0 0 
ST 156 0 0 0 0 0 0 0 1 0 0 
ST 157 0 0 0 0 0 0 1 0 0 0 
ST 158 0 1 0 0 0 0 0 0 0 0 
ST 159 0 0 0 0 0 1 0 0 0 0 
ST 160 0 0 0 0 0 0 0 0 0 0 
ST 161 0 0 0 0 0 0 0 0 0 0 
ST 162 0 0 0 0 0 0 0 0 1 0 
ST 163 0 0 0 0 0 0 0 0 0 0 
ST 164 0 0 0 0 0 0 0 0 0 0 
ST 165 1 0 0 0 0 1 0 0 0 0 
ST 166 0 0 0 1 0 0 0 0 0 0 
ST 167 1 0 0 0 0 0 0 0 0 0 
ST 168 0 0 0 0 0 0 0 0 0 1 
ST 169 0 0 0 0 0 0 0 0 0 0 
ST 170 0 0 0 0 0 0 0 0 0 0 
ST 171 0 0 0 0 0 0 0 0 1 1 
ST 172 0 0 0 0 0 1 0 0 0 0 
ST 173 0 0 0 0 0 0 0 0 0 0 
ST 174 0 0 0 0 0 0 0 0 0 0 
ST 175 0 0 0 0 1 0 0 0 0 0 
ST 176 0 0 0 0 0 0 0 1 0 0 
ST 177 0 0 0 1 0 0 0 0 0 0 
ST 178 0 0 0 0 0 0 0 0 0 0 
ST 179 0 0 0 1 0 0 0 0 0 1 
ST 180 0 0 0 0 0 0 0 0 0 0 
ST 181 0 0 0 1 0 0 0 1 0 0 
ST 182 0 1 0 0 0 0 0 0 0 0 
ST 183 0 0 0 0 0 0 0 0 0 0 
ST 184 0 0 0 0 0 0 0 0 0 0 
ST 185 0 1 0 0 0 0 0 0 0 0 
ST 186 0 0 0 0 0 0 0 0 0 0 
ST 187 0 0 0 0 0 0 0 1 0 0 
ST 188 0 0 0 0 0 0 0 0 0 0 
ST 189 1 0 1 0 1 0 0 0 0 0 
ST 190 0 0 0 0 0 0 0 0 0 1 
ST 191 0 0 0 0 0 0 0 0 0 0 
ST 192 0 0 0 0 0 0 0 0 0 0 
ST 193 0 0 0 0 0 0 0 0 0 0 
ST 194 0 0 0 0 1 0 0 0 0 0 
ST 195 0 0 0 0 0 0 0 0 0 0 
ST 196 0 0 0 0 0 0 0 0 0 0 
ST 197 1 0 0 0 0 0 0 0 0 0 
ST 198 0 0 0 0 0 0 0 0 0 0 
ST 199 0 0 0 0 0 0 0 0 0 0 
ST 200 0 1 0 0 0 0 0 0 0 0 
ST 201 0 0 0 0 0 0 0 0 0 0 
ST 202 0 0 0 0 0 0 0 0 0 0 
ST 203 0 0 0 0 0 0 0 0 0 0 
ST 204 0 0 0 0 0 0 1 0 0 0 
ST 205 0 0 0 0 0 0 0 0 0 0 
ST 206 0 0 0 0 0 0 0 0 1 0 
ST 207 0 0 0 0 0 0 0 0 0 0 
ST 208 0 0 0 0 0 0 0 0 0 0 
ST 209 1 0 0 0 0 0 0 0 0 0 
ST 210 0 0 0 0 1 0 0 0 1 1 
ST 211 0 0 0 0 0 0 0 0 0 0 
ST 212 0 0 1 1 0 0 1 0 0 1 
ST 213 0 0 0 1 1 0 1 0 0 1 
ST 214 1 0 0 0 0 0 1 0 0 0 
ST 215 1 1 1 1 1 1 1 1 1 1 
ST 216 0 0 1 0 0 0 1 0 0 0 
ST 217 0 0 0 1 0 0 0 0 0 1 
ST 218 0 0 1 0 1 1 0 0 0 1 
ST 219 0 1 0 0 0 0 1 0 1 1 
ST 220 1 0 0 1 0 0 1 1 0 0 
ST 221 0 1 1 0 1 1 0 0 0 0 
ST 222 0 1 0 0 0 1 1 1 0 1 
ST 223 0 0 0 0 0 1 1 0 0 0 
ST 224 0 0 1 0 0 0 0 0 0 0 
ST 225 0 1 1 1 0 1 0 1 0 1 
ST 226 0 1 0 1 1 1 0 1 0 0 
ST 227 0 0 0 1 1 0 0 0 0 0 
ST 228 0 1 0 1 1 1 0 0 1 1 
ST 229 0 0 0 1 0 1 0 1 0 1 
ST 230 0 0 1 1 0 0 0 0 0 1 
ST 231 1 1 0 0 1 0 0 1 0 1 
ST 232 1 0 0 1 0 0 1 0 0 1 
ST 233 0 1 1 0 0 1 0 1 0 0 
END


SECTION Coordinates
DD 1 12330 14393
DD 2 12341 14393
DD 3 12335 14392
DD 4 12335 14394
DD 5 12294 14393
DD 6 12305 14393
DD 7 12299 14392
DD 8 12299 14394
DD 9 12273 14410
DD 10 12273 14415
DD 11 12282 14409
DD 12 12282 14416
DD 13 12257 14372
DD 14 12257 14374
DD 15 12272 14374
DD 16 12263 14371
DD 17 12263 14375
DD 18 12237 14358
DD 19 12237 14363
DD 20 12252 14363
DD 21 12246 14357
DD 22 12246 14364
DD 23 12221 14363
DD 24 12236 14358
DD 25 12236 14363
DD 26 12227 14357
DD 27 12227 14364
DD 28 12204 14391
DD 29 12215 14391
DD 30 12210 14390
DD 31 12210 14392
DD 32 12186 14391
DD 33 12197 14391
DD 34 12191 14390
DD 35 12191 14392
DD 36 12132 14401
DD 37 12143 14401
DD 38 12138 14400
DD 39 12138 14402
DD 40 12114 14396
DD 41 12127 14396
DD 42 12114 14373
DD 43 12127 14373
DD 44 12114 14403
DD 45 12124 14403
DD 46 12113 14390
DD 47 12114 14387
DD 48 12124 14387
DD 49 12114 14380
DD 50 12124 14380
DD 51 12113 14367
DD 52 12114 14364
DD 53 12124 14364
DD 54 12097 14387
DD 55 12107 14387
DD 56 12108 14390
DD 57 12097 14364
DD 58 12107 14364
DD 59 12108 14367
DD 60 12097 14403
DD 61 12107 14403
DD 62 12094 14396
DD 63 12107 14396
DD 64 12097 14380
DD 65 12107 14380
DD 66 12094 14373
DD 67 12107 14373
DD 68 12099 14591
DD 69 12257 14373
DD 70 12097 14367
DD 71 12097 14373
DD 72 12108 14364
DD 73 12094 14380
DD 74 12107 14367
DD 75 12113 14364
DD 76 12094 14387
DD 77 12108 14373
DD 78 12114 14367
DD 79 12113 14373
DD 80 12097 14390
DD 81 12108 14380
DD 82 12124 14367
DD 83 12097 14396
DD 84 12113 14380
DD 85 12099 14396
DD 86 12108 14387
DD 87 12107 14390
DD 88 12124 14373
DD 89 12113 14387
DD 90 12127 14374
DD 91 12099 14403
DD 92 12127 14375
DD 93 12108 14396
DD 94 12114 14390
DD 95 12114 14391
DD 96 12114 14392
DD 97 12127 14380
DD 98 12113 14396
DD 99 12108 14403
DD 100 12114 14400
DD 101 12124 14390
DD 102 12127 14387
DD 103 12114 14401
DD 104 12124 14391
DD 105 12113 14403
DD 106 12114 14402
DD 107 12124 14392
DD 108 12127 14390
DD 109 12127 14391
DD 110 12127 14392
DD 111 12124 14396
DD 112 12132 14390
DD 113 12132 14391
DD 114 12124 14400
DD 115 12132 14392
DD 116 12124 14401
DD 117 12124 14402
DD 118 12127 14400
DD 119 12127 14401
DD 120 12132 14396
DD 121 12138 14390
DD 122 12127 14402
DD 123 12138 14391
DD 124 12138 14392
DD 125 12132 14400
DD 126 12143 14390
DD 127 12132 14402
DD 128 12138 14396
DD 129 12143 14391
DD 130 12143 14392
DD 131 12138 14401
DD 132 12143 14396
DD 133 12143 14400
DD 134 12191 14373
DD 135 12197 14373
DD 136 12197 14374
DD 137 12197 14375
DD 138 12186 14390
DD 139 12197 14380
DD 140 12186 14392
DD 141 12191 14391
DD 142 12221 14364
DD 143 12227 14358
DD 144 12197 14390
DD 145 12197 14392
DD 146 12227 14363
DD 147 12236 14357
DD 148 12204 14390
DD 149 12237 14357
DD 150 12221 14374
DD 151 12204 14392
DD 152 12221 14375
DD 153 12227 14371
DD 154 12227 14372
DD 155 12227 14373
DD 156 12236 14364
DD 157 12210 14391
DD 158 12227 14374
DD 159 12237 14364
DD 160 12227 14375
DD 161 12246 14358
DD 162 12215 14390
DD 163 12236 14371
DD 164 12236 14372
DD 165 12237 14371
DD 166 12236 14373
DD 167 12237 14372
DD 168 12246 14363
DD 169 12236 14374
DD 170 12237 14373
DD 171 12236 14375
DD 172 12237 14374
DD 173 12237 14375
DD 174 12252 14364
DD 175 12246 14371
DD 176 12246 14372
DD 177 12246 14373
DD 178 12246 14374
DD 179 12246 14375
DD 180 12252 14374
DD 181 12252 14375
DD 182 12257 14371
DD 183 12263 14372
DD 184 12263 14373
DD 185 12263 14374
DD 186 12246 14392
DD 187 12252 14392
DD 188 12257 14390
DD 189 12272 14375
DD 190 12257 14391
DD 191 12257 14392
DD 192 12263 14390
DD 193 12263 14391
DD 194 12263 14392
DD 195 12273 14392
DD 196 12273 14393
DD 197 12273 14394
DD 198 12282 14392
DD 199 12282 14393
DD 200 12282 14394
DD 201 12273 14409
DD 202 12294 14392
DD 203 12294 14394
DD 204 12282 14410
DD 205 12299 14393
DD 206 12282 14415
DD 207 12305 14392
DD 208 12305 14394
DD 209 12330 14392
DD 210 12330 14394
DD 211 12335 14393
DD 212 12330 14393
DD 213 12341 14393
DD 214 12335 14392
DD 215 12335 14394
DD 216 12294 14393
DD 217 12305 14393
DD 218 12299 14392
DD 219 12299 14394
DD 220 12273 14410
DD 221 12273 14415
DD 222 12282 14409
DD 223 12282 14416
DD 224 12257 14372
DD 225 12257 14374
DD 226 12272 14374
DD 227 12263 14371
DD 228 12263 14375
DD 229 12237 14358
DD 230 12237 14363
DD 231 12252 14363
DD 232 12246 14357
DD 233 12246 14364
END

EOF
